(set-option :smt.auto-config false)
(set-option :smt.mbqi false)
(set-option :sat.random_seed 488)
(set-option :smt.random_seed 599)
(set-option :nlsat.seed 611)
(set-option :memory_max_size 6000)
(declare-fun f (Bool Bool) Bool)
(declare-sort RegExStr 0)
(declare-sort RMode 0)
(assert (! (forall ((x0py0 Bool)(y0py0 Bool)) (! (or (not (f x0py0 y0py0)) (forall ((z0py0 Bool)(t0py0 Bool)) (! (and z0py0 (f z0py0 t0py0)) :pattern ((f z0py0 t0py0)) ))) :pattern ((f x0py0 y0py0)) )) :named A0))
(assert (! (f true true) :named A1))
(check-sat)
(get-info :reason-unknown)
